(set-info :smt-lib-version 2.6)
(set-logic UF)
(set-info :source |Benchmarks from the paper: "Extending Sledgehammer with SMT Solvers" by Jasmin Blanchette, Sascha Bohme, and Lawrence C. Paulson, CADE 2011.  Translated to SMT2 by Andrew Reynolds and Morgan Deters.|)
(set-info :category "industrial")
(set-info :status unknown)
(declare-sort S1 0)
(declare-sort S2 0)
(declare-sort S3 0)
(declare-sort S4 0)
(declare-sort S5 0)
(declare-sort S6 0)
(declare-sort S7 0)
(declare-sort S8 0)
(declare-sort S9 0)
(declare-sort S10 0)
(declare-sort S11 0)
(declare-sort S12 0)
(declare-sort S13 0)
(declare-sort S14 0)
(declare-sort S15 0)
(declare-sort S16 0)
(declare-sort S17 0)
(declare-sort S18 0)
(declare-sort S19 0)
(declare-sort S20 0)
(declare-sort S21 0)
(declare-sort S22 0)
(declare-sort S23 0)
(declare-sort S24 0)
(declare-sort S25 0)
(declare-sort S26 0)
(declare-sort S27 0)
(declare-sort S28 0)
(declare-sort S29 0)
(declare-sort S30 0)
(declare-sort S31 0)
(declare-sort S32 0)
(declare-sort S33 0)
(declare-sort S34 0)
(declare-sort S35 0)
(declare-sort S36 0)
(declare-sort S37 0)
(declare-sort S38 0)
(declare-sort S39 0)
(declare-sort S40 0)
(declare-sort S41 0)
(declare-sort S42 0)
(declare-sort S43 0)
(declare-sort S44 0)
(declare-sort S45 0)
(declare-sort S46 0)
(declare-sort S47 0)
(declare-sort S48 0)
(declare-sort S49 0)
(declare-sort S50 0)
(declare-sort S51 0)
(declare-sort S52 0)
(declare-sort S53 0)
(declare-sort S54 0)
(declare-sort S55 0)
(declare-sort S56 0)
(declare-sort S57 0)
(declare-sort S58 0)
(declare-sort S59 0)
(declare-sort S60 0)
(declare-sort S61 0)
(declare-sort S62 0)
(declare-sort S63 0)
(declare-sort S64 0)
(declare-sort S65 0)
(declare-sort S66 0)
(declare-sort S67 0)
(declare-sort S68 0)
(declare-sort S69 0)
(declare-sort S70 0)
(declare-sort S71 0)
(declare-sort S72 0)
(declare-sort S73 0)
(declare-sort S74 0)
(declare-sort S75 0)
(declare-sort S76 0)
(declare-sort S77 0)
(declare-sort S78 0)
(declare-sort S79 0)
(declare-sort S80 0)
(declare-sort S81 0)
(declare-sort S82 0)
(declare-sort S83 0)
(declare-sort S84 0)
(declare-fun f1 () S1)
(declare-fun f2 () S1)
(declare-fun f3 (S3 S2) S2)
(declare-fun f4 (S4 S5) S3)
(declare-fun f5 () S4)
(declare-fun f6 (S6 S5) S5)
(declare-fun f7 (S7 S2) S6)
(declare-fun f8 () S7)
(declare-fun f9 () S2)
(declare-fun f10 () S5)
(declare-fun f11 () S2)
(declare-fun f12 () S5)
(declare-fun f13 () S5)
(declare-fun f14 (S9 S8) S8)
(declare-fun f15 (S10 S11) S9)
(declare-fun f16 () S10)
(declare-fun f17 () S11)
(declare-fun f18 () S8)
(declare-fun f19 (S13 S12) S12)
(declare-fun f20 (S14 S15) S13)
(declare-fun f21 () S14)
(declare-fun f22 () S15)
(declare-fun f23 () S12)
(declare-fun f24 (S17 S16) S16)
(declare-fun f25 (S18 S19) S17)
(declare-fun f26 () S18)
(declare-fun f27 () S19)
(declare-fun f28 () S16)
(declare-fun f29 (S20 S16) S6)
(declare-fun f30 () S20)
(declare-fun f31 (S22 S21) S21)
(declare-fun f32 (S23 S12) S22)
(declare-fun f33 () S23)
(declare-fun f34 () S21)
(declare-fun f35 (S25 S24) S24)
(declare-fun f36 (S26 S8) S25)
(declare-fun f37 () S26)
(declare-fun f38 () S24)
(declare-fun f39 (S27 S11) S11)
(declare-fun f40 (S28 S8) S27)
(declare-fun f41 () S28)
(declare-fun f42 (S29 S15) S15)
(declare-fun f43 (S30 S12) S29)
(declare-fun f44 () S30)
(declare-fun f45 (S31 S19) S19)
(declare-fun f46 (S32 S16) S31)
(declare-fun f47 () S32)
(declare-fun f48 (S33 S5) S17)
(declare-fun f49 () S33)
(declare-fun f50 (S34 S21) S13)
(declare-fun f51 () S34)
(declare-fun f52 (S35 S24) S9)
(declare-fun f53 () S35)
(declare-fun f54 (S3) S1)
(declare-fun f55 (S36 S15) S24)
(declare-fun f56 (S37 S12) S36)
(declare-fun f57 () S37)
(declare-fun f58 (S38 S19) S24)
(declare-fun f59 (S39 S16) S38)
(declare-fun f60 () S39)
(declare-fun f61 (S40 S16) S24)
(declare-fun f62 (S41 S5) S40)
(declare-fun f63 () S41)
(declare-fun f64 (S42 S12) S24)
(declare-fun f65 (S43 S21) S42)
(declare-fun f66 () S43)
(declare-fun f67 (S44 S5) S24)
(declare-fun f68 (S45 S2) S44)
(declare-fun f69 () S45)
(declare-fun f70 (S46 S21) S12)
(declare-fun f71 (S47 S12) S46)
(declare-fun f72 () S47)
(declare-fun f73 (S48 S5) S16)
(declare-fun f74 (S49 S16) S48)
(declare-fun f75 () S49)
(declare-fun f76 (S50 S24) S8)
(declare-fun f77 (S51 S8) S50)
(declare-fun f78 () S51)
(declare-fun f79 (S52 S2) S5)
(declare-fun f80 (S53 S5) S52)
(declare-fun f81 () S53)
(declare-fun f82 (S54 S8) S1)
(declare-fun f83 (S55 S12) S1)
(declare-fun f84 (S56 S16) S1)
(declare-fun f85 (S57 S5) S1)
(declare-fun f86 (S58 S8) S24)
(declare-fun f87 () S58)
(declare-fun f88 () S42)
(declare-fun f89 () S40)
(declare-fun f90 () S44)
(declare-fun f91 () S51)
(declare-fun f92 () S47)
(declare-fun f93 () S49)
(declare-fun f94 () S53)
(declare-fun f95 (S59 S24) S50)
(declare-fun f96 () S59)
(declare-fun f97 (S60 S21) S61)
(declare-fun f98 () S60)
(declare-fun f99 (S61 S24) S12)
(declare-fun f100 (S62 S5) S63)
(declare-fun f101 () S62)
(declare-fun f102 (S63 S24) S16)
(declare-fun f103 (S64 S2) S65)
(declare-fun f104 () S64)
(declare-fun f105 (S65 S24) S5)
(declare-fun f106 () S58)
(declare-fun f107 () S42)
(declare-fun f108 () S40)
(declare-fun f109 () S44)
(declare-fun f110 (S66 S12) S13)
(declare-fun f111 () S66)
(declare-fun f112 (S67 S16) S17)
(declare-fun f113 () S67)
(declare-fun f114 (S68 S8) S9)
(declare-fun f115 () S68)
(declare-fun f116 (S69 S5) S6)
(declare-fun f117 () S69)
(declare-fun f118 (S70 S11) S24)
(declare-fun f119 () S70)
(declare-fun f120 (S71 S24) S11)
(declare-fun f121 (S72 S8) S71)
(declare-fun f122 () S72)
(declare-fun f123 () S36)
(declare-fun f124 (S73 S24) S15)
(declare-fun f125 (S74 S12) S73)
(declare-fun f126 () S74)
(declare-fun f127 () S38)
(declare-fun f128 (S75 S24) S19)
(declare-fun f129 (S76 S16) S75)
(declare-fun f130 () S76)
(declare-fun f131 () S25)
(declare-fun f132 (S24 S24) S1)
(declare-fun f133 (S77 S11) S50)
(declare-fun f134 () S77)
(declare-fun f135 (S78 S15) S61)
(declare-fun f136 () S78)
(declare-fun f137 (S79 S19) S63)
(declare-fun f138 () S79)
(declare-fun f139 (S80 S24) S2)
(declare-fun f140 (S81 S5) S80)
(declare-fun f141 () S81)
(declare-fun f142 (S82 S16) S65)
(declare-fun f143 () S82)
(declare-fun f144 (S83 S24) S21)
(declare-fun f145 (S84 S12) S83)
(declare-fun f146 () S84)
(declare-fun f147 () S26)
(declare-fun f148 () S30)
(declare-fun f149 () S32)
(declare-fun f150 () S7)
(declare-fun f151 () S33)
(declare-fun f152 () S34)
(declare-fun f153 (S11 S11) S1)
(declare-fun f154 (S8) S54)
(declare-fun f155 (S15 S15) S1)
(declare-fun f156 (S12) S55)
(declare-fun f157 (S19 S19) S1)
(declare-fun f158 (S16) S56)
(declare-fun f159 (S5) S57)
(declare-fun f160 (S21 S21) S1)
(declare-fun f161 (S24 S24) S1)
(declare-fun f162 (S2 S2) S1)
(declare-fun f163 () S35)
(declare-fun f164 () S28)
(assert (not (= f1 f2)))
(assert (not (exists ((?v0 S2)) (= (f3 (f4 f5 (f6 (f7 f8 f9) f10)) ?v0) f11))))
(assert (= f9 f11))
(assert (= f9 f11))
(assert (not (exists ((?v0 S2) (?v1 S5)) (and (not (= ?v0 f11)) (and (= ?v1 f12) (= (f6 (f7 f8 f9) f10) (f6 (f7 f8 ?v0) ?v1)))))))
(assert (=> (not (exists ((?v0 S2) (?v1 S5)) (and (not (= ?v0 f11)) (and (= ?v1 f12) (= f10 (f6 (f7 f8 ?v0) ?v1)))))) (exists ((?v0 S2)) (= (f3 (f4 f5 f10) ?v0) f11))))
(assert (not (exists ((?v0 S2) (?v1 S5)) (and (not (= ?v0 f11)) (and (= ?v1 f12) (= f13 (f6 (f7 f8 ?v0) ?v1)))))))
(assert (forall ((?v0 S8)) (= (f14 (f15 f16 f17) ?v0) f18)))
(assert (forall ((?v0 S12)) (= (f19 (f20 f21 f22) ?v0) f23)))
(assert (forall ((?v0 S16)) (= (f24 (f25 f26 f27) ?v0) f28)))
(assert (forall ((?v0 S5)) (= (f6 (f29 f30 f28) ?v0) f12)))
(assert (forall ((?v0 S21)) (= (f31 (f32 f33 f23) ?v0) f34)))
(assert (forall ((?v0 S24)) (= (f35 (f36 f37 f18) ?v0) f38)))
(assert (forall ((?v0 S2)) (= (f3 (f4 f5 f12) ?v0) f11)))
(assert (= (f39 (f40 f41 f18) f17) f17))
(assert (= (f42 (f43 f44 f23) f22) f22))
(assert (= (f45 (f46 f47 f28) f27) f27))
(assert (= (f24 (f48 f49 f12) f28) f28))
(assert (= (f19 (f50 f51 f34) f23) f23))
(assert (= (f14 (f52 f53 f38) f18) f18))
(assert (= (f6 (f7 f8 f11) f12) f12))
(assert (forall ((?v0 S8) (?v1 S11)) (= (= (f39 (f40 f41 ?v0) ?v1) f17) (and (= ?v0 f18) (= ?v1 f17)))))
(assert (forall ((?v0 S12) (?v1 S15)) (= (= (f42 (f43 f44 ?v0) ?v1) f22) (and (= ?v0 f23) (= ?v1 f22)))))
(assert (forall ((?v0 S16) (?v1 S19)) (= (= (f45 (f46 f47 ?v0) ?v1) f27) (and (= ?v0 f28) (= ?v1 f27)))))
(assert (forall ((?v0 S5) (?v1 S16)) (= (= (f24 (f48 f49 ?v0) ?v1) f28) (and (= ?v0 f12) (= ?v1 f28)))))
(assert (forall ((?v0 S21) (?v1 S12)) (= (= (f19 (f50 f51 ?v0) ?v1) f23) (and (= ?v0 f34) (= ?v1 f23)))))
(assert (forall ((?v0 S24) (?v1 S8)) (= (= (f14 (f52 f53 ?v0) ?v1) f18) (and (= ?v0 f38) (= ?v1 f18)))))
(assert (forall ((?v0 S2) (?v1 S5)) (= (= (f6 (f7 f8 ?v0) ?v1) f12) (and (= ?v0 f11) (= ?v1 f12)))))
(assert (forall ((?v0 S5)) (=> (not (= (f54 (f4 f5 ?v0)) f1)) (exists ((?v1 S2)) (= (f3 (f4 f5 ?v0) ?v1) f11)))))
(assert (forall ((?v0 S12) (?v1 S12)) (= (= (f32 f33 ?v0) (f32 f33 ?v1)) (= ?v0 ?v1))))
(assert (forall ((?v0 S5) (?v1 S5)) (= (= (f4 f5 ?v0) (f4 f5 ?v1)) (= ?v0 ?v1))))
(assert (forall ((?v0 S24) (?v1 S8) (?v2 S24) (?v3 S8)) (= (= (f14 (f52 f53 ?v0) ?v1) (f14 (f52 f53 ?v2) ?v3)) (and (= ?v0 ?v2) (= ?v1 ?v3)))))
(assert (forall ((?v0 S21) (?v1 S12) (?v2 S21) (?v3 S12)) (= (= (f19 (f50 f51 ?v0) ?v1) (f19 (f50 f51 ?v2) ?v3)) (and (= ?v0 ?v2) (= ?v1 ?v3)))))
(assert (forall ((?v0 S5) (?v1 S16) (?v2 S5) (?v3 S16)) (= (= (f24 (f48 f49 ?v0) ?v1) (f24 (f48 f49 ?v2) ?v3)) (and (= ?v0 ?v2) (= ?v1 ?v3)))))
(assert (forall ((?v0 S2) (?v1 S5) (?v2 S2) (?v3 S5)) (= (= (f6 (f7 f8 ?v0) ?v1) (f6 (f7 f8 ?v2) ?v3)) (and (= ?v0 ?v2) (= ?v1 ?v3)))))
(assert (forall ((?v0 S8)) (= (= f18 ?v0) (= ?v0 f18))))
(assert (forall ((?v0 S12)) (= (= f23 ?v0) (= ?v0 f23))))
(assert (forall ((?v0 S16)) (= (= f28 ?v0) (= ?v0 f28))))
(assert (forall ((?v0 S2)) (= (= f11 ?v0) (= ?v0 f11))))
(assert (forall ((?v0 S5)) (= (= f12 ?v0) (= ?v0 f12))))
(assert (forall ((?v0 S21)) (= (= f34 ?v0) (= ?v0 f34))))
(assert (forall ((?v0 S24)) (= (= f38 ?v0) (= ?v0 f38))))
(assert (forall ((?v0 S15) (?v1 S12)) (= (= (f19 (f20 f21 ?v0) ?v1) f23) (or (= ?v0 f22) (not (= (f55 (f56 f57 ?v1) ?v0) f38))))))
(assert (forall ((?v0 S19) (?v1 S16)) (= (= (f24 (f25 f26 ?v0) ?v1) f28) (or (= ?v0 f27) (not (= (f58 (f59 f60 ?v1) ?v0) f38))))))
(assert (forall ((?v0 S16) (?v1 S5)) (= (= (f6 (f29 f30 ?v0) ?v1) f12) (or (= ?v0 f28) (not (= (f61 (f62 f63 ?v1) ?v0) f38))))))
(assert (forall ((?v0 S12) (?v1 S21)) (= (= (f31 (f32 f33 ?v0) ?v1) f34) (or (= ?v0 f23) (not (= (f64 (f65 f66 ?v1) ?v0) f38))))))
(assert (forall ((?v0 S5) (?v1 S2)) (= (= (f3 (f4 f5 ?v0) ?v1) f11) (or (= ?v0 f12) (not (= (f67 (f68 f69 ?v1) ?v0) f38))))))
(assert (forall ((?v0 S21) (?v1 S12) (?v2 S21)) (= (f70 (f71 f72 (f19 (f50 f51 ?v0) ?v1)) ?v2) (f19 (f50 f51 (f31 (f32 f33 ?v1) ?v2)) (f70 (f71 f72 ?v1) ?v2)))))
(assert (forall ((?v0 S5) (?v1 S16) (?v2 S5)) (= (f73 (f74 f75 (f24 (f48 f49 ?v0) ?v1)) ?v2) (f24 (f48 f49 (f6 (f29 f30 ?v1) ?v2)) (f73 (f74 f75 ?v1) ?v2)))))
(assert (forall ((?v0 S24) (?v1 S8) (?v2 S24)) (= (f76 (f77 f78 (f14 (f52 f53 ?v0) ?v1)) ?v2) (f14 (f52 f53 (f35 (f36 f37 ?v1) ?v2)) (f76 (f77 f78 ?v1) ?v2)))))
(assert (forall ((?v0 S2) (?v1 S5) (?v2 S2)) (= (f79 (f80 f81 (f6 (f7 f8 ?v0) ?v1)) ?v2) (f6 (f7 f8 (f3 (f4 f5 ?v1) ?v2)) (f79 (f80 f81 ?v1) ?v2)))))
(assert (forall ((?v0 S24)) (= (f76 (f77 f78 f18) ?v0) f18)))
(assert (forall ((?v0 S21)) (= (f70 (f71 f72 f23) ?v0) f23)))
(assert (forall ((?v0 S5)) (= (f73 (f74 f75 f28) ?v0) f28)))
(assert (forall ((?v0 S2)) (= (f79 (f80 f81 f12) ?v0) f12)))
(assert (forall ((?v0 S12)) (= (= (f32 f33 ?v0) (f32 f33 f23)) (= ?v0 f23))))
(assert (forall ((?v0 S5)) (= (= (f4 f5 ?v0) (f4 f5 f12)) (= ?v0 f12))))
(assert (forall ((?v0 S3)) (= (= (f54 ?v0) f1) (forall ((?v1 S2) (?v2 S2)) (= (f3 ?v0 ?v1) (f3 ?v0 ?v2))))))
(assert (forall ((?v0 S54) (?v1 S8)) (=> (= (f82 ?v0 f18) f1) (=> (forall ((?v2 S24) (?v3 S8)) (=> (= (f82 ?v0 ?v3) f1) (= (f82 ?v0 (f14 (f52 f53 ?v2) ?v3)) f1))) (= (f82 ?v0 ?v1) f1)))))
(assert (forall ((?v0 S55) (?v1 S12)) (=> (= (f83 ?v0 f23) f1) (=> (forall ((?v2 S21) (?v3 S12)) (=> (= (f83 ?v0 ?v3) f1) (= (f83 ?v0 (f19 (f50 f51 ?v2) ?v3)) f1))) (= (f83 ?v0 ?v1) f1)))))
(assert (forall ((?v0 S56) (?v1 S16)) (=> (= (f84 ?v0 f28) f1) (=> (forall ((?v2 S5) (?v3 S16)) (=> (= (f84 ?v0 ?v3) f1) (= (f84 ?v0 (f24 (f48 f49 ?v2) ?v3)) f1))) (= (f84 ?v0 ?v1) f1)))))
(assert (forall ((?v0 S57) (?v1 S5)) (=> (= (f85 ?v0 f12) f1) (=> (forall ((?v2 S2) (?v3 S5)) (=> (= (f85 ?v0 ?v3) f1) (= (f85 ?v0 (f6 (f7 f8 ?v2) ?v3)) f1))) (= (f85 ?v0 ?v1) f1)))))
(assert (forall ((?v0 S8)) (=> (forall ((?v1 S24) (?v2 S8)) (=> (= ?v0 (f14 (f52 f53 ?v1) ?v2)) false)) false)))
(assert (forall ((?v0 S12)) (=> (forall ((?v1 S21) (?v2 S12)) (=> (= ?v0 (f19 (f50 f51 ?v1) ?v2)) false)) false)))
(assert (forall ((?v0 S16)) (=> (forall ((?v1 S5) (?v2 S16)) (=> (= ?v0 (f24 (f48 f49 ?v1) ?v2)) false)) false)))
(assert (forall ((?v0 S5)) (=> (forall ((?v1 S2) (?v2 S5)) (=> (= ?v0 (f6 (f7 f8 ?v1) ?v2)) false)) false)))
(assert (forall ((?v0 S8)) (= (= (f86 f87 ?v0) f38) (= ?v0 f18))))
(assert (forall ((?v0 S12)) (= (= (f64 f88 ?v0) f38) (= ?v0 f23))))
(assert (forall ((?v0 S16)) (= (= (f61 f89 ?v0) f38) (= ?v0 f28))))
(assert (forall ((?v0 S5)) (= (= (f67 f90 ?v0) f38) (= ?v0 f12))))
(assert (forall ((?v0 S24) (?v1 S24)) (let ((?v_0 (f14 (f52 f53 ?v0) f18))) (= (f76 (f77 f91 ?v_0) ?v1) ?v_0))))
(assert (forall ((?v0 S21) (?v1 S21)) (let ((?v_0 (f19 (f50 f51 ?v0) f23))) (= (f70 (f71 f92 ?v_0) ?v1) ?v_0))))
(assert (forall ((?v0 S5) (?v1 S5)) (let ((?v_0 (f24 (f48 f49 ?v0) f28))) (= (f73 (f74 f93 ?v_0) ?v1) ?v_0))))
(assert (forall ((?v0 S2) (?v1 S2)) (let ((?v_0 (f6 (f7 f8 ?v0) f12))) (= (f79 (f80 f94 ?v_0) ?v1) ?v_0))))
(assert (forall ((?v0 S24)) (= (f76 (f95 f96 ?v0) f38) (f14 (f52 f53 ?v0) f18))))
(assert (forall ((?v0 S21)) (= (f99 (f97 f98 ?v0) f38) (f19 (f50 f51 ?v0) f23))))
(assert (forall ((?v0 S5)) (= (f102 (f100 f101 ?v0) f38) (f24 (f48 f49 ?v0) f28))))
(assert (forall ((?v0 S2)) (= (f105 (f103 f104 ?v0) f38) (f6 (f7 f8 ?v0) f12))))
(assert (forall ((?v0 S8) (?v1 S24)) (= (= (f76 (f77 f78 ?v0) ?v1) f18) (= (f86 f106 ?v0) f38))))
(assert (forall ((?v0 S12) (?v1 S21)) (= (= (f70 (f71 f72 ?v0) ?v1) f23) (= (f64 f107 ?v0) f38))))
(assert (forall ((?v0 S16) (?v1 S5)) (= (= (f73 (f74 f75 ?v0) ?v1) f28) (= (f61 f108 ?v0) f38))))
(assert (forall ((?v0 S5) (?v1 S2)) (= (= (f79 (f80 f81 ?v0) ?v1) f12) (= (f67 f109 ?v0) f38))))
(assert (forall ((?v0 S12) (?v1 S12) (?v2 S21)) (= (f31 (f32 f33 (f19 (f110 f111 ?v0) ?v1)) ?v2) (f31 (f32 f33 ?v0) (f31 (f32 f33 ?v1) ?v2)))))
(assert (forall ((?v0 S16) (?v1 S16) (?v2 S5)) (= (f6 (f29 f30 (f24 (f112 f113 ?v0) ?v1)) ?v2) (f6 (f29 f30 ?v0) (f6 (f29 f30 ?v1) ?v2)))))
(assert (forall ((?v0 S8) (?v1 S8) (?v2 S24)) (= (f35 (f36 f37 (f14 (f114 f115 ?v0) ?v1)) ?v2) (f35 (f36 f37 ?v0) (f35 (f36 f37 ?v1) ?v2)))))
(assert (forall ((?v0 S5) (?v1 S5) (?v2 S2)) (= (f3 (f4 f5 (f6 (f116 f117 ?v0) ?v1)) ?v2) (f3 (f4 f5 ?v0) (f3 (f4 f5 ?v1) ?v2)))))
(assert (forall ((?v0 S24)) (= (f86 f106 (f14 (f52 f53 ?v0) f18)) f38)))
(assert (forall ((?v0 S21)) (= (f64 f107 (f19 (f50 f51 ?v0) f23)) f38)))
(assert (forall ((?v0 S5)) (= (f61 f108 (f24 (f48 f49 ?v0) f28)) f38)))
(assert (forall ((?v0 S2)) (= (f67 f109 (f6 (f7 f8 ?v0) f12)) f38)))
(assert (forall ((?v0 S24) (?v1 S24) (?v2 S24)) (= (= (f76 (f95 f96 ?v0) ?v1) (f76 (f95 f96 ?v2) ?v1)) (= ?v0 ?v2))))
(assert (forall ((?v0 S21) (?v1 S24) (?v2 S21)) (= (= (f99 (f97 f98 ?v0) ?v1) (f99 (f97 f98 ?v2) ?v1)) (= ?v0 ?v2))))
(assert (forall ((?v0 S5) (?v1 S24) (?v2 S5)) (= (= (f102 (f100 f101 ?v0) ?v1) (f102 (f100 f101 ?v2) ?v1)) (= ?v0 ?v2))))
(assert (forall ((?v0 S2) (?v1 S24) (?v2 S2)) (= (= (f105 (f103 f104 ?v0) ?v1) (f105 (f103 f104 ?v2) ?v1)) (= ?v0 ?v2))))
(assert (forall ((?v0 S5) (?v1 S2)) (= (f67 f109 (f79 (f80 f94 ?v0) ?v1)) (f67 f109 ?v0))))
(assert (forall ((?v0 S8) (?v1 S24)) (= (f86 f106 (f76 (f77 f91 ?v0) ?v1)) (f86 f106 ?v0))))
(assert (forall ((?v0 S12) (?v1 S21)) (= (f64 f107 (f70 (f71 f92 ?v0) ?v1)) (f64 f107 ?v0))))
(assert (forall ((?v0 S16) (?v1 S5)) (= (f61 f108 (f73 (f74 f93 ?v0) ?v1)) (f61 f108 ?v0))))
(assert (forall ((?v0 S8) (?v1 S24)) (=> (not (= ?v0 f18)) (= (f118 f119 (f120 (f121 f122 ?v0) ?v1)) ?v1))))
(assert (forall ((?v0 S12) (?v1 S24)) (=> (not (= ?v0 f23)) (= (f55 f123 (f124 (f125 f126 ?v0) ?v1)) ?v1))))
(assert (forall ((?v0 S16) (?v1 S24)) (=> (not (= ?v0 f28)) (= (f58 f127 (f128 (f129 f130 ?v0) ?v1)) ?v1))))
(assert (forall ((?v0 S2) (?v1 S24)) (=> (not (= ?v0 f11)) (= (f67 f109 (f105 (f103 f104 ?v0) ?v1)) ?v1))))
(assert (forall ((?v0 S5) (?v1 S24)) (=> (not (= ?v0 f12)) (= (f61 f108 (f102 (f100 f101 ?v0) ?v1)) ?v1))))
(assert (forall ((?v0 S21) (?v1 S24)) (=> (not (= ?v0 f34)) (= (f64 f107 (f99 (f97 f98 ?v0) ?v1)) ?v1))))
(assert (forall ((?v0 S24) (?v1 S24)) (=> (not (= ?v0 f38)) (= (f86 f106 (f76 (f95 f96 ?v0) ?v1)) ?v1))))
(assert (= (f86 f106 f18) f38))
(assert (= (f64 f107 f23) f38))
(assert (= (f61 f108 f28) f38))
(assert (= (f67 f109 f12) f38))
(assert (forall ((?v0 S8) (?v1 S24)) (= (= (f76 (f77 f91 ?v0) ?v1) f18) (= ?v0 f18))))
(assert (forall ((?v0 S12) (?v1 S21)) (= (= (f70 (f71 f92 ?v0) ?v1) f23) (= ?v0 f23))))
(assert (forall ((?v0 S16) (?v1 S5)) (= (= (f73 (f74 f93 ?v0) ?v1) f28) (= ?v0 f28))))
(assert (forall ((?v0 S5) (?v1 S2)) (= (= (f79 (f80 f94 ?v0) ?v1) f12) (= ?v0 f12))))
(assert (forall ((?v0 S24)) (= (f76 (f77 f91 f18) ?v0) f18)))
(assert (forall ((?v0 S21)) (= (f70 (f71 f92 f23) ?v0) f23)))
(assert (forall ((?v0 S5)) (= (f73 (f74 f93 f28) ?v0) f28)))
(assert (forall ((?v0 S2)) (= (f79 (f80 f94 f12) ?v0) f12)))
(assert (forall ((?v0 S24)) (= (f120 (f121 f122 f18) ?v0) f17)))
(assert (forall ((?v0 S24)) (= (f124 (f125 f126 f23) ?v0) f22)))
(assert (forall ((?v0 S24)) (= (f128 (f129 f130 f28) ?v0) f27)))
(assert (forall ((?v0 S24)) (= (f102 (f100 f101 f12) ?v0) f28)))
(assert (forall ((?v0 S24)) (= (f99 (f97 f98 f34) ?v0) f23)))
(assert (forall ((?v0 S24)) (= (f76 (f95 f96 f38) ?v0) f18)))
(assert (forall ((?v0 S24)) (= (f105 (f103 f104 f11) ?v0) f12)))
(assert (forall ((?v0 S8) (?v1 S24)) (= (= (f120 (f121 f122 ?v0) ?v1) f17) (= ?v0 f18))))
(assert (forall ((?v0 S12) (?v1 S24)) (= (= (f124 (f125 f126 ?v0) ?v1) f22) (= ?v0 f23))))
(assert (forall ((?v0 S16) (?v1 S24)) (= (= (f128 (f129 f130 ?v0) ?v1) f27) (= ?v0 f28))))
(assert (forall ((?v0 S2) (?v1 S24)) (= (= (f105 (f103 f104 ?v0) ?v1) f12) (= ?v0 f11))))
(assert (forall ((?v0 S5) (?v1 S24)) (= (= (f102 (f100 f101 ?v0) ?v1) f28) (= ?v0 f12))))
(assert (forall ((?v0 S21) (?v1 S24)) (= (= (f99 (f97 f98 ?v0) ?v1) f23) (= ?v0 f34))))
(assert (forall ((?v0 S24) (?v1 S24)) (= (= (f76 (f95 f96 ?v0) ?v1) f18) (= ?v0 f38))))
(assert (forall ((?v0 S8)) (= (f14 (f114 f115 f18) ?v0) f18)))
(assert (forall ((?v0 S12)) (= (f19 (f110 f111 f23) ?v0) f23)))
(assert (forall ((?v0 S16)) (= (f24 (f112 f113 f28) ?v0) f28)))
(assert (forall ((?v0 S5)) (= (f6 (f116 f117 f12) ?v0) f12)))
(assert (forall ((?v0 S8)) (= (f86 f87 ?v0) (ite (= ?v0 f18) f38 (f35 f131 (f86 f106 ?v0))))))
(assert (forall ((?v0 S12)) (= (f64 f88 ?v0) (ite (= ?v0 f23) f38 (f35 f131 (f64 f107 ?v0))))))
(assert (forall ((?v0 S16)) (= (f61 f89 ?v0) (ite (= ?v0 f28) f38 (f35 f131 (f61 f108 ?v0))))))
(assert (forall ((?v0 S5)) (= (f67 f90 ?v0) (ite (= ?v0 f12) f38 (f35 f131 (f67 f109 ?v0))))))
(assert (forall ((?v0 S24) (?v1 S8)) (= (f86 f106 (f14 (f52 f53 ?v0) ?v1)) (ite (= ?v1 f18) f38 (f35 f131 (f86 f106 ?v1))))))
(assert (forall ((?v0 S21) (?v1 S12)) (= (f64 f107 (f19 (f50 f51 ?v0) ?v1)) (ite (= ?v1 f23) f38 (f35 f131 (f64 f107 ?v1))))))
(assert (forall ((?v0 S5) (?v1 S16)) (= (f61 f108 (f24 (f48 f49 ?v0) ?v1)) (ite (= ?v1 f28) f38 (f35 f131 (f61 f108 ?v1))))))
(assert (forall ((?v0 S2) (?v1 S5)) (= (f67 f109 (f6 (f7 f8 ?v0) ?v1)) (ite (= ?v1 f12) f38 (f35 f131 (f67 f109 ?v1))))))
(assert (forall ((?v0 S12) (?v1 S21)) (=> (not (= ?v0 f23)) (= (f132 (f64 (f65 f66 ?v1) ?v0) (f64 f107 ?v0)) f1))))
(assert (forall ((?v0 S16) (?v1 S5)) (=> (not (= ?v0 f28)) (= (f132 (f61 (f62 f63 ?v1) ?v0) (f61 f108 ?v0)) f1))))
(assert (forall ((?v0 S5) (?v1 S2)) (=> (not (= ?v0 f12)) (= (f132 (f67 (f68 f69 ?v1) ?v0) (f67 f109 ?v0)) f1))))
(assert (forall ((?v0 S8) (?v1 S24)) (let ((?v_0 (f121 f122 ?v0))) (= (f120 ?v_0 (f35 f131 ?v1)) (f39 (f40 f41 f18) (f120 ?v_0 ?v1))))))
(assert (forall ((?v0 S12) (?v1 S24)) (let ((?v_0 (f125 f126 ?v0))) (= (f124 ?v_0 (f35 f131 ?v1)) (f42 (f43 f44 f23) (f124 ?v_0 ?v1))))))
(assert (forall ((?v0 S16) (?v1 S24)) (let ((?v_0 (f129 f130 ?v0))) (= (f128 ?v_0 (f35 f131 ?v1)) (f45 (f46 f47 f28) (f128 ?v_0 ?v1))))))
(assert (forall ((?v0 S5) (?v1 S24)) (let ((?v_0 (f100 f101 ?v0))) (= (f102 ?v_0 (f35 f131 ?v1)) (f24 (f48 f49 f12) (f102 ?v_0 ?v1))))))
(assert (forall ((?v0 S21) (?v1 S24)) (let ((?v_0 (f97 f98 ?v0))) (= (f99 ?v_0 (f35 f131 ?v1)) (f19 (f50 f51 f34) (f99 ?v_0 ?v1))))))
(assert (forall ((?v0 S24) (?v1 S24)) (let ((?v_0 (f95 f96 ?v0))) (= (f76 ?v_0 (f35 f131 ?v1)) (f14 (f52 f53 f38) (f76 ?v_0 ?v1))))))
(assert (forall ((?v0 S2) (?v1 S24)) (let ((?v_0 (f103 f104 ?v0))) (= (f105 ?v_0 (f35 f131 ?v1)) (f6 (f7 f8 f11) (f105 ?v_0 ?v1))))))
(assert (forall ((?v0 S8) (?v1 S24)) (=> (not (= ?v0 f18)) (= (f86 f106 (f14 (f52 f53 ?v1) ?v0)) (f35 f131 (f86 f106 ?v0))))))
(assert (forall ((?v0 S12) (?v1 S21)) (=> (not (= ?v0 f23)) (= (f64 f107 (f19 (f50 f51 ?v1) ?v0)) (f35 f131 (f64 f107 ?v0))))))
(assert (forall ((?v0 S16) (?v1 S5)) (=> (not (= ?v0 f28)) (= (f61 f108 (f24 (f48 f49 ?v1) ?v0)) (f35 f131 (f61 f108 ?v0))))))
(assert (forall ((?v0 S5) (?v1 S2)) (=> (not (= ?v0 f12)) (= (f67 f109 (f6 (f7 f8 ?v1) ?v0)) (f35 f131 (f67 f109 ?v0))))))
(assert (forall ((?v0 S11)) (=> (not (= ?v0 f17)) (not (= (f76 (f133 f134 ?v0) (f118 f119 ?v0)) f18)))))
(assert (forall ((?v0 S15)) (=> (not (= ?v0 f22)) (not (= (f99 (f135 f136 ?v0) (f55 f123 ?v0)) f23)))))
(assert (forall ((?v0 S19)) (=> (not (= ?v0 f27)) (not (= (f102 (f137 f138 ?v0) (f58 f127 ?v0)) f28)))))
(assert (forall ((?v0 S5)) (=> (not (= ?v0 f12)) (not (= (f139 (f140 f141 ?v0) (f67 f109 ?v0)) f11)))))
(assert (forall ((?v0 S16)) (=> (not (= ?v0 f28)) (not (= (f105 (f142 f143 ?v0) (f61 f108 ?v0)) f12)))))
(assert (forall ((?v0 S12)) (=> (not (= ?v0 f23)) (not (= (f144 (f145 f146 ?v0) (f64 f107 ?v0)) f34)))))
(assert (forall ((?v0 S8)) (=> (not (= ?v0 f18)) (not (= (f35 (f36 f147 ?v0) (f86 f106 ?v0)) f38)))))
(assert (forall ((?v0 S11)) (= (= (f76 (f133 f134 ?v0) (f118 f119 ?v0)) f18) (= ?v0 f17))))
(assert (forall ((?v0 S15)) (= (= (f99 (f135 f136 ?v0) (f55 f123 ?v0)) f23) (= ?v0 f22))))
(assert (forall ((?v0 S19)) (= (= (f102 (f137 f138 ?v0) (f58 f127 ?v0)) f28) (= ?v0 f27))))
(assert (forall ((?v0 S16)) (= (= (f105 (f142 f143 ?v0) (f61 f108 ?v0)) f12) (= ?v0 f28))))
(assert (forall ((?v0 S12)) (= (= (f144 (f145 f146 ?v0) (f64 f107 ?v0)) f34) (= ?v0 f23))))
(assert (forall ((?v0 S8)) (= (= (f35 (f36 f147 ?v0) (f86 f106 ?v0)) f38) (= ?v0 f18))))
(assert (forall ((?v0 S5)) (= (= (f139 (f140 f141 ?v0) (f67 f109 ?v0)) f11) (= ?v0 f12))))
(assert (forall ((?v0 S12) (?v1 S15)) (= (f55 f123 (f42 (f43 f148 ?v0) ?v1)) (ite (= ?v0 f23) f38 (f55 f123 ?v1)))))
(assert (forall ((?v0 S16) (?v1 S19)) (= (f58 f127 (f45 (f46 f149 ?v0) ?v1)) (ite (= ?v0 f28) f38 (f58 f127 ?v1)))))
(assert (forall ((?v0 S2) (?v1 S5)) (= (f67 f109 (f6 (f7 f150 ?v0) ?v1)) (ite (= ?v0 f11) f38 (f67 f109 ?v1)))))
(assert (forall ((?v0 S5) (?v1 S16)) (= (f61 f108 (f24 (f48 f151 ?v0) ?v1)) (ite (= ?v0 f12) f38 (f61 f108 ?v1)))))
(assert (forall ((?v0 S21) (?v1 S12)) (= (f64 f107 (f19 (f50 f152 ?v0) ?v1)) (ite (= ?v0 f34) f38 (f64 f107 ?v1)))))
(assert (forall ((?v0 S8) (?v1 S11)) (= (= (f153 f17 (f39 (f40 f41 ?v0) ?v1)) f1) (and (= (f82 (f154 f18) ?v0) f1) (= (f153 f17 ?v1) f1)))))
(assert (forall ((?v0 S12) (?v1 S15)) (= (= (f155 f22 (f42 (f43 f44 ?v0) ?v1)) f1) (and (= (f83 (f156 f23) ?v0) f1) (= (f155 f22 ?v1) f1)))))
(assert (forall ((?v0 S16) (?v1 S19)) (= (= (f157 f27 (f45 (f46 f47 ?v0) ?v1)) f1) (and (= (f84 (f158 f28) ?v0) f1) (= (f157 f27 ?v1) f1)))))
(assert (forall ((?v0 S5) (?v1 S16)) (let ((?v_0 (f158 f28))) (= (= (f84 ?v_0 (f24 (f48 f49 ?v0) ?v1)) f1) (and (= (f85 (f159 f12) ?v0) f1) (= (f84 ?v_0 ?v1) f1))))))
(assert (forall ((?v0 S21) (?v1 S12)) (let ((?v_0 (f156 f23))) (= (= (f83 ?v_0 (f19 (f50 f51 ?v0) ?v1)) f1) (and (= (f160 f34 ?v0) f1) (= (f83 ?v_0 ?v1) f1))))))
(assert (forall ((?v0 S24) (?v1 S8)) (let ((?v_0 (f154 f18))) (= (= (f82 ?v_0 (f14 (f52 f53 ?v0) ?v1)) f1) (and (= (f161 f38 ?v0) f1) (= (f82 ?v_0 ?v1) f1))))))
(assert (forall ((?v0 S2) (?v1 S5)) (let ((?v_0 (f159 f12))) (= (= (f85 ?v_0 (f6 (f7 f8 ?v0) ?v1)) f1) (and (= (f162 f11 ?v0) f1) (= (f85 ?v_0 ?v1) f1))))))
(assert (forall ((?v0 S2) (?v1 S5)) (= (f132 (f67 f109 (f6 (f7 f150 ?v0) ?v1)) (f67 f109 ?v1)) f1)))
(assert (forall ((?v0 S24) (?v1 S8)) (= (f132 (f86 f106 (f14 (f52 f163 ?v0) ?v1)) (f86 f106 ?v1)) f1)))
(assert (forall ((?v0 S21) (?v1 S12)) (= (f132 (f64 f107 (f19 (f50 f152 ?v0) ?v1)) (f64 f107 ?v1)) f1)))
(assert (forall ((?v0 S5) (?v1 S16)) (= (f132 (f61 f108 (f24 (f48 f151 ?v0) ?v1)) (f61 f108 ?v1)) f1)))
(assert (forall ((?v0 S24) (?v1 S8) (?v2 S24)) (= (f35 (f36 f147 (f14 (f52 f53 ?v0) ?v1)) (f35 f131 ?v2)) (f35 (f36 f147 ?v1) ?v2))))
(assert (forall ((?v0 S21) (?v1 S12) (?v2 S24)) (= (f144 (f145 f146 (f19 (f50 f51 ?v0) ?v1)) (f35 f131 ?v2)) (f144 (f145 f146 ?v1) ?v2))))
(assert (forall ((?v0 S5) (?v1 S16) (?v2 S24)) (= (f105 (f142 f143 (f24 (f48 f49 ?v0) ?v1)) (f35 f131 ?v2)) (f105 (f142 f143 ?v1) ?v2))))
(assert (forall ((?v0 S2) (?v1 S5) (?v2 S24)) (= (f139 (f140 f141 (f6 (f7 f8 ?v0) ?v1)) (f35 f131 ?v2)) (f139 (f140 f141 ?v1) ?v2))))
(assert (forall ((?v0 S8) (?v1 S8)) (= (= (f36 f147 ?v0) (f36 f147 ?v1)) (= ?v0 ?v1))))
(assert (forall ((?v0 S12) (?v1 S12)) (= (= (f145 f146 ?v0) (f145 f146 ?v1)) (= ?v0 ?v1))))
(assert (forall ((?v0 S16) (?v1 S16)) (= (= (f142 f143 ?v0) (f142 f143 ?v1)) (= ?v0 ?v1))))
(assert (forall ((?v0 S5) (?v1 S5)) (= (= (f140 f141 ?v0) (f140 f141 ?v1)) (= ?v0 ?v1))))
(assert (forall ((?v0 S5) (?v1 S5)) (= (= (f85 (f159 ?v0) ?v1) f1) (= ?v0 ?v1))))
(assert (forall ((?v0 S8) (?v1 S8)) (= (= (f82 (f154 ?v0) ?v1) f1) (= ?v0 ?v1))))
(assert (forall ((?v0 S12) (?v1 S12)) (= (= (f83 (f156 ?v0) ?v1) f1) (= ?v0 ?v1))))
(assert (forall ((?v0 S16) (?v1 S16)) (= (= (f84 (f158 ?v0) ?v1) f1) (= ?v0 ?v1))))
(assert (forall ((?v0 S8) (?v1 S8)) (= (= ?v0 ?v1) (forall ((?v2 S24)) (= (f35 (f36 f147 ?v0) ?v2) (f35 (f36 f147 ?v1) ?v2))))))
(assert (forall ((?v0 S12) (?v1 S12)) (= (= ?v0 ?v1) (forall ((?v2 S24)) (= (f144 (f145 f146 ?v0) ?v2) (f144 (f145 f146 ?v1) ?v2))))))
(assert (forall ((?v0 S16) (?v1 S16)) (= (= ?v0 ?v1) (forall ((?v2 S24)) (= (f105 (f142 f143 ?v0) ?v2) (f105 (f142 f143 ?v1) ?v2))))))
(assert (forall ((?v0 S5) (?v1 S5)) (= (= ?v0 ?v1) (forall ((?v2 S24)) (= (f139 (f140 f141 ?v0) ?v2) (f139 (f140 f141 ?v1) ?v2))))))
(assert (forall ((?v0 S11) (?v1 S24)) (=> (not (= (f76 (f133 f134 ?v0) ?v1) f18)) (= (f132 ?v1 (f118 f119 ?v0)) f1))))
(assert (forall ((?v0 S15) (?v1 S24)) (=> (not (= (f99 (f135 f136 ?v0) ?v1) f23)) (= (f132 ?v1 (f55 f123 ?v0)) f1))))
(assert (forall ((?v0 S19) (?v1 S24)) (=> (not (= (f102 (f137 f138 ?v0) ?v1) f28)) (= (f132 ?v1 (f58 f127 ?v0)) f1))))
(assert (forall ((?v0 S5) (?v1 S24)) (=> (not (= (f139 (f140 f141 ?v0) ?v1) f11)) (= (f132 ?v1 (f67 f109 ?v0)) f1))))
(assert (forall ((?v0 S16) (?v1 S24)) (=> (not (= (f105 (f142 f143 ?v0) ?v1) f12)) (= (f132 ?v1 (f61 f108 ?v0)) f1))))
(assert (forall ((?v0 S12) (?v1 S24)) (=> (not (= (f144 (f145 f146 ?v0) ?v1) f34)) (= (f132 ?v1 (f64 f107 ?v0)) f1))))
(assert (forall ((?v0 S8) (?v1 S24)) (=> (not (= (f35 (f36 f147 ?v0) ?v1) f38)) (= (f132 ?v1 (f86 f106 ?v0)) f1))))
(assert (forall ((?v0 S24) (?v1 S8) (?v2 S24) (?v3 S8)) (= (= (f82 (f154 (f14 (f52 f53 ?v0) ?v1)) (f14 (f52 f53 ?v2) ?v3)) f1) (and (= (f161 ?v0 ?v2) f1) (= (f82 (f154 ?v1) ?v3) f1)))))
(assert (forall ((?v0 S21) (?v1 S12) (?v2 S21) (?v3 S12)) (= (= (f83 (f156 (f19 (f50 f51 ?v0) ?v1)) (f19 (f50 f51 ?v2) ?v3)) f1) (and (= (f160 ?v0 ?v2) f1) (= (f83 (f156 ?v1) ?v3) f1)))))
(assert (forall ((?v0 S5) (?v1 S16) (?v2 S5) (?v3 S16)) (= (= (f84 (f158 (f24 (f48 f49 ?v0) ?v1)) (f24 (f48 f49 ?v2) ?v3)) f1) (and (= (f85 (f159 ?v0) ?v2) f1) (= (f84 (f158 ?v1) ?v3) f1)))))
(assert (forall ((?v0 S8) (?v1 S11) (?v2 S8) (?v3 S11)) (= (= (f153 (f39 (f40 f41 ?v0) ?v1) (f39 (f40 f41 ?v2) ?v3)) f1) (and (= (f82 (f154 ?v0) ?v2) f1) (= (f153 ?v1 ?v3) f1)))))
(assert (forall ((?v0 S12) (?v1 S15) (?v2 S12) (?v3 S15)) (= (= (f155 (f42 (f43 f44 ?v0) ?v1) (f42 (f43 f44 ?v2) ?v3)) f1) (and (= (f83 (f156 ?v0) ?v2) f1) (= (f155 ?v1 ?v3) f1)))))
(assert (forall ((?v0 S16) (?v1 S19) (?v2 S16) (?v3 S19)) (= (= (f157 (f45 (f46 f47 ?v0) ?v1) (f45 (f46 f47 ?v2) ?v3)) f1) (and (= (f84 (f158 ?v0) ?v2) f1) (= (f157 ?v1 ?v3) f1)))))
(assert (forall ((?v0 S2) (?v1 S5) (?v2 S2) (?v3 S5)) (= (= (f85 (f159 (f6 (f7 f8 ?v0) ?v1)) (f6 (f7 f8 ?v2) ?v3)) f1) (and (= (f162 ?v0 ?v2) f1) (= (f85 (f159 ?v1) ?v3) f1)))))
(assert (forall ((?v0 S24) (?v1 S8)) (= (f132 (f86 f106 (f14 (f52 f53 ?v0) ?v1)) (f35 f131 (f86 f106 ?v1))) f1)))
(assert (forall ((?v0 S21) (?v1 S12)) (= (f132 (f64 f107 (f19 (f50 f51 ?v0) ?v1)) (f35 f131 (f64 f107 ?v1))) f1)))
(assert (forall ((?v0 S5) (?v1 S16)) (= (f132 (f61 f108 (f24 (f48 f49 ?v0) ?v1)) (f35 f131 (f61 f108 ?v1))) f1)))
(assert (forall ((?v0 S2) (?v1 S5)) (= (f132 (f67 f109 (f6 (f7 f8 ?v0) ?v1)) (f35 f131 (f67 f109 ?v1))) f1)))
(assert (forall ((?v0 S24)) (= (f14 (f52 f163 ?v0) f18) f18)))
(assert (forall ((?v0 S21)) (= (f19 (f50 f152 ?v0) f23) f23)))
(assert (forall ((?v0 S5)) (= (f24 (f48 f151 ?v0) f28) f28)))
(assert (forall ((?v0 S2)) (= (f6 (f7 f150 ?v0) f12) f12)))
(assert (= (= (f82 (f154 f18) f18) f1) true))
(assert (= (= (f83 (f156 f23) f23) f1) true))
(assert (= (= (f84 (f158 f28) f28) f1) true))
(assert (= (= (f85 (f159 f12) f12) f1) true))
(assert (forall ((?v0 S12) (?v1 S15)) (= (= (f42 (f43 f148 ?v0) ?v1) f22) (or (= ?v0 f23) (= ?v1 f22)))))
(assert (forall ((?v0 S16) (?v1 S19)) (= (= (f45 (f46 f149 ?v0) ?v1) f27) (or (= ?v0 f28) (= ?v1 f27)))))
(assert (forall ((?v0 S2) (?v1 S5)) (= (= (f6 (f7 f150 ?v0) ?v1) f12) (or (= ?v0 f11) (= ?v1 f12)))))
(assert (forall ((?v0 S5) (?v1 S16)) (= (= (f24 (f48 f151 ?v0) ?v1) f28) (or (= ?v0 f12) (= ?v1 f28)))))
(assert (forall ((?v0 S21) (?v1 S12)) (= (= (f19 (f50 f152 ?v0) ?v1) f23) (or (= ?v0 f34) (= ?v1 f23)))))
(assert (forall ((?v0 S11)) (= (f39 (f40 f164 f18) ?v0) f17)))
(assert (forall ((?v0 S15)) (= (f42 (f43 f148 f23) ?v0) f22)))
(assert (forall ((?v0 S19)) (= (f45 (f46 f149 f28) ?v0) f27)))
(assert (forall ((?v0 S16)) (= (f24 (f48 f151 f12) ?v0) f28)))
(assert (forall ((?v0 S12)) (= (f19 (f50 f152 f34) ?v0) f23)))
(assert (forall ((?v0 S8)) (= (f14 (f52 f163 f38) ?v0) f18)))
(assert (forall ((?v0 S5)) (= (f6 (f7 f150 f11) ?v0) f12)))
(assert (forall ((?v0 S24)) (= (f76 (f133 f134 f17) ?v0) f18)))
(assert (forall ((?v0 S24)) (= (f99 (f135 f136 f22) ?v0) f23)))
(assert (forall ((?v0 S24)) (= (f102 (f137 f138 f27) ?v0) f28)))
(assert (forall ((?v0 S24)) (= (f139 (f140 f141 f12) ?v0) f11)))
(assert (forall ((?v0 S24)) (= (f105 (f142 f143 f28) ?v0) f12)))
(assert (forall ((?v0 S24)) (= (f144 (f145 f146 f23) ?v0) f34)))
(assert (forall ((?v0 S24)) (= (f35 (f36 f147 f18) ?v0) f38)))
(assert (forall ((?v0 S24) (?v1 S8)) (= (f35 (f36 f147 (f14 (f52 f53 ?v0) ?v1)) f38) ?v0)))
(assert (forall ((?v0 S21) (?v1 S12)) (= (f144 (f145 f146 (f19 (f50 f51 ?v0) ?v1)) f38) ?v0)))
(assert (forall ((?v0 S5) (?v1 S16)) (= (f105 (f142 f143 (f24 (f48 f49 ?v0) ?v1)) f38) ?v0)))
(assert (forall ((?v0 S2) (?v1 S5)) (= (f139 (f140 f141 (f6 (f7 f8 ?v0) ?v1)) f38) ?v0)))
(assert (forall ((?v0 S24) (?v1 S8) (?v2 S24)) (=> (= (f14 (f52 f163 ?v0) ?v1) (f14 (f52 f53 ?v2) ?v1)) (= ?v1 f18))))
(assert (forall ((?v0 S21) (?v1 S12) (?v2 S21)) (=> (= (f19 (f50 f152 ?v0) ?v1) (f19 (f50 f51 ?v2) ?v1)) (= ?v1 f23))))
(assert (forall ((?v0 S5) (?v1 S16) (?v2 S5)) (=> (= (f24 (f48 f151 ?v0) ?v1) (f24 (f48 f49 ?v2) ?v1)) (= ?v1 f28))))
(assert (forall ((?v0 S2) (?v1 S5) (?v2 S2)) (=> (= (f6 (f7 f150 ?v0) ?v1) (f6 (f7 f8 ?v2) ?v1)) (= ?v1 f12))))
(assert (forall ((?v0 S12) (?v1 S24) (?v2 S24)) (= (f99 (f135 f136 (f124 (f125 f126 ?v0) ?v1)) ?v2) (ite (= ?v1 ?v2) ?v0 f23))))
(assert (forall ((?v0 S16) (?v1 S24) (?v2 S24)) (= (f102 (f137 f138 (f128 (f129 f130 ?v0) ?v1)) ?v2) (ite (= ?v1 ?v2) ?v0 f28))))
(assert (forall ((?v0 S2) (?v1 S24) (?v2 S24)) (= (f139 (f140 f141 (f105 (f103 f104 ?v0) ?v1)) ?v2) (ite (= ?v1 ?v2) ?v0 f11))))
(assert (forall ((?v0 S5) (?v1 S24) (?v2 S24)) (= (f105 (f142 f143 (f102 (f100 f101 ?v0) ?v1)) ?v2) (ite (= ?v1 ?v2) ?v0 f12))))
(assert (forall ((?v0 S21) (?v1 S24) (?v2 S24)) (= (f144 (f145 f146 (f99 (f97 f98 ?v0) ?v1)) ?v2) (ite (= ?v1 ?v2) ?v0 f34))))
(assert (forall ((?v0 S24) (?v1 S24) (?v2 S24)) (= (f35 (f36 f147 (f76 (f95 f96 ?v0) ?v1)) ?v2) (ite (= ?v1 ?v2) ?v0 f38))))
(assert (forall ((?v0 S2) (?v1 S5)) (= (= (f85 (f159 (f6 (f7 f8 ?v0) ?v1)) f12) f1) (and (= (f162 ?v0 f11) f1) (= (f85 (f159 ?v1) f12) f1)))))
(assert (forall ((?v0 S24) (?v1 S8)) (= (= (f82 (f154 (f14 (f52 f53 ?v0) ?v1)) f18) f1) (and (= (f161 ?v0 f38) f1) (= (f82 (f154 ?v1) f18) f1)))))
(assert (forall ((?v0 S21) (?v1 S12)) (= (= (f83 (f156 (f19 (f50 f51 ?v0) ?v1)) f23) f1) (and (= (f160 ?v0 f34) f1) (= (f83 (f156 ?v1) f23) f1)))))
(assert (forall ((?v0 S5) (?v1 S16)) (= (= (f84 (f158 (f24 (f48 f49 ?v0) ?v1)) f28) f1) (and (= (f85 (f159 ?v0) f12) f1) (= (f84 (f158 ?v1) f28) f1)))))
(check-sat)
(exit)
